HFSDDW
15	9	3
0	26	1	48	2	29
0	41	1	29	2	48
0	47	1	15	2	17
0	85	1	23	2	78
0	90	1	48	2	96
0	35	1	47	2	18
0	24	1	7	2	70
0	46	1	34	2	89
0	27	1	17	2	22
0	61	1	15	2	89
0	65	1	4	2	4
0	66	1	38	2	66
0	74	1	94	2	31
0	24	1	68	2	22
0	22	1	92	2	86
LBCmax: 305
RELDUE
-1	325	3	8
-1	230	1	3
-1	275	2	2
-1	318	7	3
-1	252	1	3
-1	333	6	5
-1	206	8	1
-1	258	4	5
-1	156	3	4
-1	309	1	3
-1	299	7	5
-1	179	7	6
-1	225	9	4
-1	179	5	1
-1	175	8	6
DDW
289	361
214	246
231	319
305	331
202	302
276	390
196	216
209	307
133	179
266	352
287	311
172	186
198	252
158	200
142	208
